p cnf 90 300
-1 -2 91
-1 -3 91
-2 -3 91
1 2 3 91
-4 -5 91
-4 -6 91
-5 -6 91
4 5 6 91
-7 -8 91
-7 -9 91
-8 -9 91
7 8 9 91
-10 -11 91
-10 -12 91
-11 -12 91
10 11 12 91
-13 -14 91
-13 -15 91
-14 -15 91
13 14 15 91
-16 -17 91
-16 -18 91
-17 -18 91
16 17 18 91
-19 -20 91
-19 -21 91
-20 -21 91
19 20 21 91
-22 -23 91
-22 -24 91
-23 -24 91
22 23 24 91
-25 -26 91
-25 -27 91
-26 -27 91
25 26 27 91
-28 -29 91
-28 -30 91
-29 -30 91
28 29 30 91
-31 -32 91
-31 -33 91
-32 -33 91
31 32 33 91
-34 -35 91
-34 -36 91
-35 -36 91
34 35 36 91
-37 -38 91
-37 -39 91
-38 -39 91
37 38 39 91
-40 -41 91
-40 -42 91
-41 -42 91
40 41 42 91
-43 -44 91
-43 -45 91
-44 -45 91
43 44 45 91
-46 -47 91
-46 -48 91
-47 -48 91
46 47 48 91
-49 -50 91
-49 -51 91
-50 -51 91
49 50 51 91
-52 -53 91
-52 -54 91
-53 -54 91
52 53 54 91
-55 -56 91
-55 -57 91
-56 -57 91
55 56 57 91
-58 -59 91
-58 -60 91
-59 -60 91
58 59 60 91
-61 -62 91
-61 -63 91
-62 -63 91
61 62 63 91
-64 -65 91
-64 -66 91
-65 -66 91
64 65 66 91
-67 -68 91
-67 -69 91
-68 -69 91
67 68 69 91
-70 -71 91
-70 -72 91
-71 -72 91
70 71 72 91
-73 -74 91
-73 -75 91
-74 -75 91
73 74 75 91
-76 -77 91
-76 -78 91
-77 -78 91
76 77 78 91
-79 -80 91
-79 -81 91
-80 -81 91
79 80 81 91
-82 -83 91
-82 -84 91
-83 -84 91
82 83 84 91
-85 -86 91
-85 -87 91
-86 -87 91
85 86 87 91
-88 -89 91
-88 -90 91
-89 -90 91
88 89 90 91
-52 -1 91
-53 -2 91
-54 -3 91
-82 -1 91
-83 -2 91
-84 -3 91
-85 -1 91
-86 -2 91
-87 -3 91
-37 -4 91
-38 -5 91
-39 -6 91
-55 -4 91
-56 -5 91
-57 -6 91
-67 -7 91
-68 -8 91
-69 -9 91
-79 -7 91
-80 -8 91
-81 -9 91
-85 -7 91
-86 -8 91
-87 -9 91
-46 -10 91
-47 -11 91
-48 -12 91
-55 -10 91
-56 -11 91
-57 -12 91
-58 -10 91
-59 -11 91
-60 -12 91
-70 -10 91
-71 -11 91
-72 -12 91
-52 -13 91
-53 -14 91
-54 -15 91
-55 -13 91
-56 -14 91
-57 -15 91
-58 -13 91
-59 -14 91
-60 -15 91
-73 -13 91
-74 -14 91
-75 -15 91
-82 -13 91
-83 -14 91
-84 -15 91
-88 -13 91
-89 -14 91
-90 -15 91
-37 -16 91
-38 -17 91
-39 -18 91
-67 -16 91
-68 -17 91
-69 -18 91
-76 -16 91
-77 -17 91
-78 -18 91
-37 -19 91
-38 -20 91
-39 -21 91
-40 -19 91
-41 -20 91
-42 -21 91
-49 -19 91
-50 -20 91
-51 -21 91
-61 -19 91
-62 -20 91
-63 -21 91
-73 -19 91
-74 -20 91
-75 -21 91
-85 -19 91
-86 -20 91
-87 -21 91
-34 -22 91
-35 -23 91
-36 -24 91
-46 -22 91
-47 -23 91
-48 -24 91
-58 -22 91
-59 -23 91
-60 -24 91
-61 -22 91
-62 -23 91
-63 -24 91
-73 -22 91
-74 -23 91
-75 -24 91
-76 -22 91
-77 -23 91
-78 -24 91
-31 -25 91
-32 -26 91
-33 -27 91
-52 -25 91
-53 -26 91
-54 -27 91
-67 -25 91
-68 -26 91
-69 -27 91
-76 -25 91
-77 -26 91
-78 -27 91
-34 -28 91
-35 -29 91
-36 -30 91
-40 -28 91
-41 -29 91
-42 -30 91
-64 -28 91
-65 -29 91
-66 -30 91
-64 -31 91
-65 -32 91
-66 -33 91
-79 -31 91
-80 -32 91
-81 -33 91
-82 -31 91
-83 -32 91
-84 -33 91
-73 -34 91
-74 -35 91
-75 -36 91
-79 -34 91
-80 -35 91
-81 -36 91
-61 -37 91
-62 -38 91
-63 -39 91
-70 -40 91
-71 -41 91
-72 -42 91
-73 -40 91
-74 -41 91
-75 -42 91
-76 -43 91
-77 -44 91
-78 -45 91
-64 -46 91
-65 -47 91
-66 -48 91
-70 -46 91
-71 -47 91
-72 -48 91
-73 -49 91
-74 -50 91
-75 -51 91
-76 -49 91
-77 -50 91
-78 -51 91
-85 -49 91
-86 -50 91
-87 -51 91
-88 -52 91
-89 -53 91
-90 -54 91
-70 -55 91
-71 -56 91
-72 -57 91
-79 -55 91
-80 -56 91
-81 -57 91
-76 -58 91
-77 -59 91
-78 -60 91
-85 -58 91
-86 -59 91
-87 -60 91
-88 -58 91
-89 -59 91
-90 -60 91
